(set-logic QF_S)
(declare-fun var0 () String)
(assert (str.in.re var0 (re.++ (re.+ (re.+ (str.to.re "0"))) (re.++ (re.+ (re.+ (str.to.re "111"))) (re.++ (re.+ (re.* (str.to.re "222"))) (re.++ (re.* (re.* (str.to.re "33"))) (re.++ (re.* (re.* (str.to.re "444"))) (re.++ (re.union (re.* (str.to.re "555")) (re.* (str.to.re "66"))) (re.++ (re.union (re.+ (str.to.re "77")) (re.+ (str.to.re "88"))) (re.++ (re.+ (re.union (str.to.re "999") (str.to.re "aaa"))) (re.++ (re.* (re.+ (str.to.re "bbb"))) (re.++ (re.* (re.+ (str.to.re "cc"))) (re.++ (re.union (re.union (str.to.re "d") (str.to.re "ee")) (re.union (str.to.re "fff") (str.to.re "ggg"))) (re.++ (re.+ (re.* (str.to.re "h"))) (re.++ (re.+ (re.+ (str.to.re "iii"))) (re.++ (re.+ (re.+ (str.to.re "jjj"))) (re.++ (re.* (re.union (str.to.re "k") (str.to.re "lll"))) (re.++ (re.* (re.union (str.to.re "mmm") (str.to.re "nn"))) (re.++ (re.union (re.+ (str.to.re "o")) (re.+ (str.to.re "p"))) (re.++ (re.+ (re.union (str.to.re "q") (str.to.re "rrr"))) (re.++ (re.* (re.union (str.to.re "ss") (str.to.re "t"))) (re.++ (re.+ (re.+ (str.to.re "uu"))) (re.++ (re.* (re.+ (str.to.re "v"))) (re.++ (re.* (re.+ (str.to.re "w"))) (re.++ (re.* (re.+ (str.to.re "xx"))) (re.++ (re.* (re.+ (str.to.re "yy"))) (re.++ (re.* (re.* (str.to.re "zzz"))) (re.++ (re.* (re.union (str.to.re "AAA") (str.to.re "BB"))) (re.++ (re.union (re.+ (str.to.re "C")) (re.+ (str.to.re "DD"))) (re.++ (re.union (re.+ (str.to.re "EEE")) (re.+ (str.to.re "F"))) (re.++ (re.union (re.union (str.to.re "GGG") (str.to.re "HH")) (re.union (str.to.re "II") (str.to.re "J"))) (re.++ (re.+ (re.* (str.to.re "K"))) (re.++ (re.* (re.* (str.to.re "LL"))) (re.++ (re.+ (re.+ (str.to.re "M"))) (re.++ (re.* (re.union (str.to.re "NNN") (str.to.re "OO"))) (re.++ (re.+ (re.* (str.to.re "PP"))) (re.++ (re.* (re.union (str.to.re "Q") (str.to.re "RR"))) (re.++ (re.* (re.union (str.to.re "S") (str.to.re "T"))) (re.++ (re.union (re.+ (str.to.re "UUU")) (re.+ (str.to.re "VV"))) (re.++ (re.* (re.* (str.to.re "W"))) (re.++ (re.union (re.+ (str.to.re "X")) (re.+ (str.to.re "Y"))) (re.++ (re.* (re.+ (str.to.re "Z"))) (re.++ (re.+ (re.union (str.to.re "!!!") (str.to.re """"))) (re.++ (re.+ (re.union (str.to.re "##") (str.to.re "$"))) (re.++ (re.* (re.+ (str.to.re "%%"))) (re.++ (re.* (re.* (str.to.re "&&"))) (re.++ (re.* (re.union (str.to.re "'") (str.to.re "((("))) (re.++ (re.+ (re.union (str.to.re ")))") (str.to.re "**"))) (re.++ (re.+ (re.union (str.to.re "+++") (str.to.re ",,"))) (re.++ (re.* (re.* (str.to.re "-"))) (re.++ (re.+ (re.union (str.to.re ".") (str.to.re "///"))) (re.++ (re.+ (re.* (str.to.re ":::"))) (re.++ (re.+ (re.* (str.to.re ";"))) (re.++ (re.+ (re.union (str.to.re "<<<") (str.to.re "=="))) (re.++ (re.+ (re.* (str.to.re ">>"))) (re.++ (re.* (re.+ (str.to.re "?"))) (re.++ (re.union (re.union (str.to.re "@") (str.to.re "[")) (re.union (str.to.re "\\\\\\") (str.to.re "]]]"))) (re.++ (re.* (re.union (str.to.re "^^^") (str.to.re "_"))) (re.++ (re.union (re.* (str.to.re "`")) (re.* (str.to.re "{{"))) (re.++ (re.union (re.union (str.to.re "||") (str.to.re "}")) (re.union (str.to.re "~~") (str.to.re "00"))) (re.++ (re.+ (re.* (str.to.re "11"))) (re.++ (re.* (re.+ (str.to.re "22"))) (re.++ (re.+ (re.+ (str.to.re "333"))) (re.++ (re.* (re.+ (str.to.re "44"))) (re.++ (re.union (re.+ (str.to.re "55")) (re.+ (str.to.re "666"))) (re.++ (re.* (re.* (str.to.re "7"))) (re.++ (re.* (re.+ (str.to.re "8"))) (re.++ (re.* (re.+ (str.to.re "999"))) (re.++ (re.+ (re.* (str.to.re "aaa"))) (re.++ (re.+ (re.union (str.to.re "b") (str.to.re "c"))) (re.++ (re.+ (re.union (str.to.re "ddd") (str.to.re "ee"))) (re.++ (re.+ (re.* (str.to.re "f"))) (re.++ (re.union (re.union (str.to.re "gg") (str.to.re "hhh")) (re.union (str.to.re "iii") (str.to.re "j"))) (re.++ (re.+ (re.+ (str.to.re "k"))) (re.++ (re.* (re.* (str.to.re "l"))) (re.++ (re.* (re.* (str.to.re "mmm"))) (re.++ (re.+ (re.+ (str.to.re "nn"))) (re.++ (re.* (re.+ (str.to.re "o"))) (re.++ (re.union (re.+ (str.to.re "p")) (re.+ (str.to.re "qq"))) (re.++ (re.union (re.* (str.to.re "rrr")) (re.* (str.to.re "sss"))) (re.++ (re.+ (re.+ (str.to.re "ttt"))) (re.++ (re.* (re.* (str.to.re "uu"))) (re.++ (re.* (re.* (str.to.re "vvv"))) (re.++ (re.* (re.union (str.to.re "www") (str.to.re "x"))) (re.++ (re.union (re.* (str.to.re "y")) (re.* (str.to.re "z"))) (re.++ (re.union (re.+ (str.to.re "A")) (re.+ (str.to.re "BBB"))) (re.++ (re.+ (re.+ (str.to.re "C"))) (re.++ (re.+ (re.* (str.to.re "DDD"))) (re.++ (re.+ (re.+ (str.to.re "E"))) (re.++ (re.+ (re.* (str.to.re "F"))) (re.++ (re.union (re.* (str.to.re "G")) (re.* (str.to.re "H"))) (re.++ (re.* (re.* (str.to.re "III"))) (re.++ (re.+ (re.* (str.to.re "JJ"))) (re.union (re.union (str.to.re "KKK") (str.to.re "LL")) (re.union (str.to.re "MMM") (str.to.re "NN"))))))))))))))))))))))))))))))))))))))))))))))))))))))))))))))))))))))))))))))))))))))))))))))))
(check-sat)